20
1 0 6
2 1 5
3 0 4
3 2 2
4 0 4
4 2 6
4 3 2
5 1 2
6 0 5
6 1 1
6 2 2
6 3 6
6 4 4
6 5 4
7 5 1
8 1 4
8 4 4
8 5 4
8 7 4
9 0 4
9 4 4
9 6 3
9 7 3
10 5 3
10 6 5
10 8 3
10 9 4
11 0 2
11 1 4
11 4 3
11 5 2
11 7 3
11 8 4
12 3 3
12 4 1
12 6 6
12 7 4
13 0 3
13 4 4
13 6 2
13 11 6
14 0 2
14 2 3
14 4 6
14 5 5
14 6 6
14 7 6
14 9 4
14 10 2
14 11 1
14 12 4
15 5 5
15 9 2
15 14 4
16 1 5
16 3 2
16 5 1
16 9 4
16 11 4
16 12 3
17 0 3
17 1 2
17 4 3
17 7 2
17 8 5
17 11 5
17 12 1
17 13 4
17 14 6
17 16 3
18 0 3
18 1 2
18 2 5
18 3 3
18 4 5
18 8 3
18 9 2
18 12 2
18 16 2
19 0 5
19 1 3
19 3 1
19 4 5
19 8 5
19 10 3
19 12 3
19 13 3
19 14 4
19 15 3
19 16 5
19 18 1
